23075
1 1 1 1 1 1 1 1 1 1 1 1 1 1 1 1 1 1 1 1 0 1 1 0 0 0 0 0 1 0 
18 19 21 22 2 12 15 28 22 28 4 28 13 1 28 18 1 10 22 0 18 16 5 0 10 18 22 19 4 2 19 19 4 16 28 6 8 8 16 16 18 9 6 4 8 19 13 21 19 14 0 16 2 16 8 6 11 9 18 7 4 0 7 8 13 11 5 14 28 12 18 12 19 9 5 13 10 5 8 16 10 0 9 7 4 13 6 5 22 7 28 6 7 11 2 3 11 6 0 28 28 15 12 18 4 0 4 16 22 3 19 4 18 12 12 8 28 7 17 8 9 11 17 19 9 16 2 11 19 17 28 21 11 10 1 9 3 3 28 10 12 22 11 11 11 5 16 15 18 7 0 17 10 0 8 11 2 15 3 13 13 0 10 2 5 18 5 4 3 21 1 8 19 14 4 2 0 10 4 10 5 21 2 19 12 8 28 10 0 21 2 21 6 4 7 12 7 15 10 19 
